14
0 70 40 60 85 22 59 54 40 62 38 87 61 40
70 0 39 45 46 28 47 43 20 38 45 64 62 63
40 39 0 48 51 93 60 63 61 43 32 54 56 37
60 45 48 0 52 62 42 55 64 48 33 77 45 61
85 46 51 52 0 52 66 59 50 56 64 74 58 53
22 28 93 62 52 0 86 54 62 29 84 33 29 50
59 47 60 42 66 86 0 37 61 59 55 57 59 65
54 43 63 55 59 54 37 0 66 76 77 25 45 54
40 20 61 64 50 62 61 66 0 51 56 19 35 46
62 38 43 48 56 29 59 76 51 0 68 87 41 45
38 45 32 33 64 84 55 77 56 68 0 52 26 37
87 64 54 77 74 33 57 25 19 87 52 0 68 58
61 62 56 45 58 29 59 45 35 41 26 68 0 35
40 63 37 61 53 50 65 54 46 45 37 58 35 0
